Read MPS format model from file dat/rmp/DER_48_16384_30.mps
Reading time = 1.17 seconds
: 16432 rows, 77968 columns, 3380280 nonzeros
Gurobi Optimizer version 9.0.0 build v9.0.0rc2 (linux64)
Optimize a model with 16432 rows, 77968 columns and 3380280 nonzeros
Model fingerprint: 0x9805fb08
Coefficient statistics:
  Matrix range     [1e-13, 1e+01]
  Objective range  [3e-01, 1e+03]
  Bounds range     [1e+05, 1e+05]
  RHS range        [1e+00, 1e+00]
Ordering time: 0.02s

Barrier statistics:
 AA' NZ     : 7.476e+05
 Factor NZ  : 9.355e+05 (roughly 50 MBytes of memory)
 Factor Ops : 5.509e+07 (less than 1 second per iteration)
 Threads    : 1

                  Objective                Residual
Iter       Primal          Dual         Primal    Dual     Compl     Time
   0   2.29776165e+09 -1.71288004e+08  8.82e+07 1.32e-02  7.36e+05     1s
   1   4.24309950e+07 -2.50122972e+07  1.41e+06 3.64e-12  1.22e+04     1s
   2   2.50259389e+06 -1.09518136e+07  8.19e+04 1.82e-12  8.29e+02     1s
   3   6.08367321e+04 -6.54801000e+06  2.72e+02 1.82e-12  8.65e+01     1s
   4   4.93194521e+04  3.02344691e+04  2.66e-10 3.64e-12  2.45e-01     1s
   5   4.89539310e+04  4.53579787e+04  3.73e-10 3.64e-12  4.61e-02     2s
   6   4.84204437e+04  4.73867734e+04  1.72e-10 5.46e-12  1.32e-02     2s
   7   4.81439773e+04  4.76641905e+04  4.88e-10 2.73e-12  6.15e-03     2s
   8   4.80495156e+04  4.78065495e+04  6.09e-10 1.82e-12  3.11e-03     2s
   9   4.79381608e+04  4.78847485e+04  1.57e-09 3.64e-12  6.85e-04     3s
  10   4.79177855e+04  4.78928109e+04  2.63e-09 3.64e-12  3.20e-04     3s
  11   4.79168368e+04  4.78962741e+04  2.52e-09 3.64e-12  2.64e-04     3s
  12   4.79122854e+04  4.78995281e+04  4.19e-09 3.64e-12  1.64e-04     3s
  13   4.79100609e+04  4.79013126e+04  5.47e-09 1.82e-12  1.12e-04     4s
  14   4.79083274e+04  4.79036257e+04  5.61e-09 3.64e-12  6.03e-05     4s
  15   4.79072697e+04  4.79043501e+04  6.38e-09 1.82e-12  3.74e-05     4s
  16   4.79064239e+04  4.79051824e+04  1.18e-08 3.64e-12  1.59e-05     5s
  17   4.79059729e+04  4.79055713e+04  1.60e-08 3.64e-12  5.15e-06     5s
  18   4.79058374e+04  4.79057101e+04  1.26e-08 1.82e-12  1.63e-06     5s
  19   4.79057897e+04  4.79057562e+04  1.49e-08 1.82e-12  4.29e-07     5s
  20   4.79057702e+04  4.79057627e+04  3.97e-07 1.82e-12  9.67e-08     6s
  21   4.79057655e+04  4.79057641e+04  1.97e-06 1.82e-12  1.86e-08     6s
  22   4.79057649e+04  4.79057644e+04  1.23e-06 3.64e-12  7.03e-09     6s
  23   4.79057647e+04  4.79057644e+04  2.64e-06 1.82e-12  3.33e-09     6s
  24   4.79057646e+04  4.79057644e+04  3.92e-06 1.82e-12  1.78e-09     6s
  25   4.79057646e+04  4.79057644e+04  4.42e-06 1.82e-12  1.49e-09     7s
  26   4.79057645e+04  4.79057644e+04  6.05e-05 1.82e-12  1.57e-10     7s
  27   4.79057644e+04  4.79057644e+04  6.81e-06 1.82e-12  1.15e-11     7s
  28   4.79057644e+04  4.79057644e+04  2.14e-06 1.82e-12  1.95e-13     7s
  29   4.79057644e+04  4.79057644e+04  6.18e-07 3.64e-12  1.95e-16     7s

Barrier solved model in 29 iterations and 7.31 seconds
Optimal objective 4.79057644e+04

Solve time: 7.312589198
Barrier iterations: 29
